Route #1: 36 37 19 25 38
Route #2: 18 44 35 32 22 6 1
Route #3: 7 3 26 20 39 8 15 34
Route #4: 12 5 31 43 23
Route #5: 14 28 33 10 2 41
Route #6: 17 47 16 24 42 11 27
Route #7: 40 45 9 4 13 46 30 21 29
cost 1190.9652099609375